750
1000 1000
1 700 821
2 699 187
3 699 134
4 699 627
5 697 181
6 693 611
7 692 182
8 691 958
9 690 595
10 690 284
11 690 97
12 689 571
13 687 486
14 686 492
15 684 114
16 684 447
17 683 343
18 683 485
19 682 983
20 679 531
21 678 427
22 678 30
23 677 465
24 676 844
25 676 732
26 676 299
27 676 104
28 674 984
29 674 99
30 673 71
31 673 504
32 672 85
33 671 477
34 670 338
35 670 972
36 669 127
37 669 804
38 668 8
39 668 431
40 666 679
41 663 19
42 663 186
43 661 608
44 661 329
45 660 496
46 660 690
47 659 832
48 658 86
49 657 714
50 655 377
51 655 709
52 652 664
53 652 232
54 649 580
55 647 232
56 647 82
57 646 444
58 643 13
59 643 292
60 642 816
61 641 404
62 641 720
63 641 899
64 641 21
65 641 915
66 640 979
67 640 115
68 639 408
69 636 238
70 633 778
71 633 783
72 632 693
73 631 278
74 631 450
75 630 992
76 629 629
77 626 963
78 625 930
79 624 990
80 623 322
81 623 511
82 623 855
83 622 91
84 621 961
85 618 490
86 617 821
87 615 218
88 615 51
89 613 286
90 613 263
91 612 116
92 611 792
93 611 787
94 610 683
95 609 701
96 608 292
97 608 747
98 607 330
99 606 15
100 606 125
101 605 764
102 604 556
103 602 325
104 602 645
105 602 662
106 602 545
107 601 405
108 601 835
109 600 803
110 600 652
111 600 463
112 599 487
113 599 951
114 597 847
115 597 77
116 597 645
117 595 346
118 595 158
119 595 860
120 594 329
121 594 336
122 594 680
123 592 356
124 591 588
125 591 701
126 591 127
127 590 410
128 590 665
129 587 141
130 587 263
131 587 257
132 586 703
133 585 851
134 585 417
135 584 865
136 582 707
137 582 766
138 582 833
139 582 930
140 580 781
141 578 972
142 578 27
143 578 541
144 577 963
145 576 272
146 576 30
147 575 395
148 575 756
149 575 636
150 575 679
151 575 512
152 573 425
153 573 170
154 572 855
155 572 979
156 570 260
157 570 5
158 569 872
159 568 31
160 568 99
161 568 902
162 565 426
163 565 881
164 563 553
165 563 432
166 563 731
167 560 245
168 559 325
169 558 455
170 557 528
171 556 505
172 556 493
173 555 836
174 555 339
175 553 296
176 550 385
177 550 140
178 550 960
179 546 21
180 546 446
181 544 748
182 544 18
183 544 418
184 543 488
185 540 559
186 539 669
187 539 815
188 538 785
189 538 754
190 537 940
191 536 43
192 535 416
193 534 248
194 533 815
195 533 328
196 531 337
197 531 121
198 528 96
199 528 793
200 528 350
201 527 537
202 526 464
203 524 330
204 524 911
205 523 683
206 522 992
207 521 111
208 521 15
209 521 126
210 520 438
211 520 205
212 519 207
213 519 160
214 519 8
215 519 147
216 518 941
217 518 179
218 518 655
219 517 969
220 516 670
221 511 724
222 511 499
223 511 139
224 509 735
225 505 904
226 505 543
227 504 437
228 504 471
229 504 546
230 503 148
231 503 480
232 501 994
233 500 227
234 500 769
235 500 400
236 496 52
237 494 796
238 493 972
239 491 825
240 491 336
241 490 186
242 488 837
243 488 823
244 488 530
245 486 459
246 486 544
247 485 562
248 484 748
249 481 1000
250 480 934
251 479 162
252 479 398
253 478 448
254 478 949
255 476 373
256 476 757
257 475 146
258 474 642
259 472 160
260 472 419
261 472 156
262 470 717
263 468 592
264 466 713
265 466 204
266 466 183
267 465 230
268 462 537
269 462 184
270 460 210
271 460 750
272 459 331
273 459 598
274 458 244
275 457 947
276 457 919
277 456 80
278 456 210
279 455 483
280 455 408
281 453 730
282 452 361
283 450 493
284 449 395
285 449 44
286 449 251
287 449 396
288 449 451
289 448 405
290 448 387
291 448 393
292 446 587
293 445 441
294 444 705
295 443 719
296 443 575
297 442 376
298 440 653
299 440 787
300 440 983
301 439 198
302 438 273
303 438 499
304 438 807
305 437 875
306 437 536
307 435 99
308 435 753
309 435 402
310 434 947
311 433 691
312 432 35
313 432 171
314 432 339
315 427 348
316 426 23
317 426 848
318 425 32
319 425 414
320 424 760
321 423 440
322 423 927
323 417 468
324 416 43
325 415 899
326 415 788
327 414 418
328 414 191
329 411 773
330 410 353
331 410 880
332 410 944
333 408 782
334 407 294
335 405 342
336 405 68
337 405 380
338 403 268
339 403 137
340 403 972
341 402 389
342 402 837
343 401 67
344 400 890
345 400 235
346 398 423
347 398 826
348 397 127
349 396 905
350 395 930
351 395 224
352 395 120
353 394 32
354 394 392
355 394 642
356 394 859
357 393 987
358 393 499
359 393 713
360 392 510
361 391 842
362 391 800
363 390 427
364 389 102
365 389 10
366 389 123
367 388 548
368 388 851
369 388 531
370 388 522
371 387 891
372 386 730
373 386 847
374 385 678
375 385 533
376 385 921
377 384 734
378 382 715
379 382 424
380 382 930
381 381 829
382 381 110
383 381 503
384 380 24
385 380 574
386 380 756
387 379 772
388 379 195
389 378 184
390 378 578
391 378 301
392 377 841
393 376 733
394 374 442
395 374 365
396 373 65
397 373 448
398 373 643
399 373 237
400 373 218
401 371 309
402 370 386
403 370 977
404 368 889
405 367 874
406 367 422
407 365 244
408 365 921
409 364 69
410 364 451
411 363 685
412 363 862
413 363 602
414 362 578
415 362 885
416 361 562
417 361 341
418 361 364
419 359 651
420 359 454
421 358 831
422 357 697
423 356 74
424 356 271
425 355 993
426 355 511
427 355 878
428 355 244
429 352 808
430 351 395
431 351 469
432 351 960
433 350 151
434 349 25
435 349 986
436 348 864
437 348 639
438 348 516
439 348 135
440 348 110
441 347 672
442 347 307
443 347 224
444 347 581
445 346 762
446 346 942
447 346 940
448 346 953
449 345 775
450 344 701
451 343 830
452 343 975
453 342 243
454 342 341
455 341 638
456 341 85
457 340 743
458 340 778
459 339 661
460 339 335
461 339 111
462 338 390
463 336 36
464 336 792
465 334 592
466 333 691
467 333 270
468 333 623
469 333 428
470 331 86
471 328 595
472 327 188
473 327 24
474 325 131
475 323 274
476 323 764
477 323 194
478 322 122
479 320 338
480 319 733
481 318 288
482 318 0
483 317 558
484 316 594
485 315 412
486 315 52
487 314 164
488 314 512
489 314 429
490 314 83
491 312 501
492 311 268
493 310 123
494 310 547
495 306 858
496 305 946
497 303 611
498 302 190
499 301 538
500 300 281
501 299 129
502 296 881
503 296 626
504 295 288
505 295 658
506 294 665
507 294 168
508 291 902
509 291 31
510 289 470
511 289 834
512 289 526
513 289 627
514 284 213
515 284 48
516 284 25
517 283 426
518 282 789
519 282 525
520 282 748
521 280 663
522 278 835
523 278 387
524 276 84
525 276 997
526 274 290
527 274 744
528 274 752
529 273 788
530 272 948
531 271 56
532 271 258
533 270 577
534 269 657
535 268 209
536 266 456
537 266 791
538 266 106
539 265 391
540 265 195
541 264 80
542 262 846
543 262 86
544 261 512
545 260 315
546 260 129
547 260 183
548 260 852
549 259 959
550 259 185
551 258 857
552 258 752
553 258 949
554 257 405
555 257 453
556 256 252
557 256 572
558 256 718
559 254 927
560 254 842
561 254 812
562 253 950
563 253 560
564 253 295
565 252 289
566 251 402
567 251 702
568 250 659
569 250 586
570 250 494
571 249 141
572 247 648
573 247 837
574 246 237
575 246 551
576 244 834
577 242 139
578 242 557
579 240 362
580 239 446
581 239 137
582 235 76
583 234 821
584 234 179
585 233 171
586 233 255
587 232 668
588 231 376
589 230 431
590 229 20
591 229 852
592 229 419
593 228 158
594 228 435
595 227 648
596 226 755
597 225 470
598 225 762
599 224 611
600 223 190
601 223 848
602 223 786
603 223 61
604 221 370
605 220 898
606 220 832
607 220 560
608 216 98
609 215 69
610 215 833
611 215 448
612 214 900
613 213 603
614 213 33
615 212 773
616 208 156
617 207 844
618 206 378
619 206 884
620 205 749
621 205 625
622 204 231
623 204 64
624 203 775
625 202 104
626 202 156
627 200 109
628 199 453
629 199 400
630 199 188
631 198 211
632 198 148
633 198 590
634 197 502
635 197 15
636 197 72
637 195 934
638 195 412
639 195 388
640 195 944
641 193 773
642 193 338
643 193 791
644 192 859
645 191 785
646 191 2
647 190 879
648 189 943
649 188 19
650 187 755
651 186 869
652 185 814
653 185 396
654 185 546
655 184 599
656 184 148
657 182 642
658 182 599
659 180 256
660 180 453
661 179 1
662 177 662
663 176 769
664 174 588
665 174 541
666 173 259
667 173 867
668 171 385
669 171 463
670 170 642
671 170 224
672 170 891
673 169 235
674 167 115
675 167 991
676 166 183
677 165 417
678 163 874
679 163 569
680 160 858
681 160 181
682 158 781
683 155 239
684 153 361
685 152 67
686 149 395
687 149 35
688 147 772
689 147 670
690 147 767
691 146 382
692 146 515
693 146 769
694 145 778
695 144 78
696 144 920
697 144 807
698 144 223
699 144 135
700 143 196
701 143 759
702 142 924
703 139 542
704 139 578
705 138 726
706 138 684
707 137 680
708 137 129
709 133 468
710 133 348
711 133 611
712 132 484
713 132 755
714 129 279
715 128 543
716 127 605
717 127 696
718 126 671
719 124 623
720 122 181
721 121 517
722 121 748
723 120 474
724 120 358
725 119 248
726 118 571
727 116 812
728 116 825
729 116 359
730 115 46
731 115 782
732 115 608
733 114 988
734 112 775
735 112 512
736 111 382
737 110 154
738 110 626
739 110 777
740 109 16
741 106 178
742 106 933
743 105 581
744 105 313
745 104 600
746 103 444
747 102 765
748 100 771
749 100 594
750 100 329
